certificates/rado_a14_c204_N52.cnf
c Rad2 upper bound instance: x1 + 14*x2 - x3 = 204, interval [1,52]
p cnf 52 384
1 7 15 0
-1 -7 -15 0
1 16 21 0
-1 -16 -21 0
1 17 35 0
-1 -17 -35 0
1 18 49 0
-1 -18 -49 0
2 8 15 0
-2 -8 -15 0
2 16 22 0
-2 -16 -22 0
2 17 36 0
-2 -17 -36 0
2 18 50 0
-2 -18 -50 0
3 9 15 0
-3 -9 -15 0
3 16 23 0
-3 -16 -23 0
3 17 37 0
-3 -17 -37 0
3 18 51 0
-3 -18 -51 0
4 10 15 0
-4 -10 -15 0
4 16 24 0
-4 -16 -24 0
4 17 38 0
-4 -17 -38 0
4 18 52 0
-4 -18 -52 0
5 11 15 0
-5 -11 -15 0
5 16 25 0
-5 -16 -25 0
5 17 39 0
-5 -17 -39 0
6 12 15 0
-6 -12 -15 0
6 16 26 0
-6 -16 -26 0
6 17 40 0
-6 -17 -40 0
7 13 15 0
-7 -13 -15 0
7 16 27 0
-7 -16 -27 0
7 17 41 0
-7 -17 -41 0
8 14 15 0
-8 -14 -15 0
8 16 28 0
-8 -16 -28 0
8 17 42 0
-8 -17 -42 0
1 9 14 0
-1 -9 -14 0
9 15 0
-9 -15 0
9 16 29 0
-9 -16 -29 0
9 17 43 0
-9 -17 -43 0
2 10 14 0
-2 -10 -14 0
10 15 16 0
-10 -15 -16 0
10 16 30 0
-10 -16 -30 0
10 17 44 0
-10 -17 -44 0
3 11 14 0
-3 -11 -14 0
11 15 17 0
-11 -15 -17 0
11 16 31 0
-11 -16 -31 0
11 17 45 0
-11 -17 -45 0
4 12 14 0
-4 -12 -14 0
12 15 18 0
-12 -15 -18 0
12 16 32 0
-12 -16 -32 0
12 17 46 0
-12 -17 -46 0
5 13 14 0
-5 -13 -14 0
13 15 19 0
-13 -15 -19 0
13 16 33 0
-13 -16 -33 0
13 17 47 0
-13 -17 -47 0
6 14 0
-6 -14 0
14 15 20 0
-14 -15 -20 0
14 16 34 0
-14 -16 -34 0
14 17 48 0
-14 -17 -48 0
7 14 15 0
-7 -14 -15 0
15 21 0
-15 -21 0
15 16 35 0
-15 -16 -35 0
15 17 49 0
-15 -17 -49 0
8 14 16 0
-8 -14 -16 0
15 16 22 0
-15 -16 -22 0
16 36 0
-16 -36 0
16 17 50 0
-16 -17 -50 0
9 14 17 0
-9 -14 -17 0
15 17 23 0
-15 -17 -23 0
16 17 37 0
-16 -17 -37 0
17 51 0
-17 -51 0
10 14 18 0
-10 -14 -18 0
15 18 24 0
-15 -18 -24 0
16 18 38 0
-16 -18 -38 0
17 18 52 0
-17 -18 -52 0
11 14 19 0
-11 -14 -19 0
15 19 25 0
-15 -19 -25 0
16 19 39 0
-16 -19 -39 0
12 14 20 0
-12 -14 -20 0
15 20 26 0
-15 -20 -26 0
16 20 40 0
-16 -20 -40 0
13 14 21 0
-13 -14 -21 0
15 21 27 0
-15 -21 -27 0
16 21 41 0
-16 -21 -41 0
14 22 0
-14 -22 0
15 22 28 0
-15 -22 -28 0
16 22 42 0
-16 -22 -42 0
1 13 23 0
-1 -13 -23 0
14 15 23 0
-14 -15 -23 0
15 23 29 0
-15 -23 -29 0
16 23 43 0
-16 -23 -43 0
2 13 24 0
-2 -13 -24 0
14 16 24 0
-14 -16 -24 0
15 24 30 0
-15 -24 -30 0
16 24 44 0
-16 -24 -44 0
3 13 25 0
-3 -13 -25 0
14 17 25 0
-14 -17 -25 0
15 25 31 0
-15 -25 -31 0
16 25 45 0
-16 -25 -45 0
4 13 26 0
-4 -13 -26 0
14 18 26 0
-14 -18 -26 0
15 26 32 0
-15 -26 -32 0
16 26 46 0
-16 -26 -46 0
5 13 27 0
-5 -13 -27 0
14 19 27 0
-14 -19 -27 0
15 27 33 0
-15 -27 -33 0
16 27 47 0
-16 -27 -47 0
6 13 28 0
-6 -13 -28 0
14 20 28 0
-14 -20 -28 0
15 28 34 0
-15 -28 -34 0
16 28 48 0
-16 -28 -48 0
7 13 29 0
-7 -13 -29 0
14 21 29 0
-14 -21 -29 0
15 29 35 0
-15 -29 -35 0
16 29 49 0
-16 -29 -49 0
8 13 30 0
-8 -13 -30 0
14 22 30 0
-14 -22 -30 0
15 30 36 0
-15 -30 -36 0
16 30 50 0
-16 -30 -50 0
9 13 31 0
-9 -13 -31 0
14 23 31 0
-14 -23 -31 0
15 31 37 0
-15 -31 -37 0
16 31 51 0
-16 -31 -51 0
10 13 32 0
-10 -13 -32 0
14 24 32 0
-14 -24 -32 0
15 32 38 0
-15 -32 -38 0
16 32 52 0
-16 -32 -52 0
11 13 33 0
-11 -13 -33 0
14 25 33 0
-14 -25 -33 0
15 33 39 0
-15 -33 -39 0
12 13 34 0
-12 -13 -34 0
14 26 34 0
-14 -26 -34 0
15 34 40 0
-15 -34 -40 0
13 35 0
-13 -35 0
14 27 35 0
-14 -27 -35 0
15 35 41 0
-15 -35 -41 0
13 14 36 0
-13 -14 -36 0
14 28 36 0
-14 -28 -36 0
15 36 42 0
-15 -36 -42 0
1 12 37 0
-1 -12 -37 0
13 15 37 0
-13 -15 -37 0
14 29 37 0
-14 -29 -37 0
15 37 43 0
-15 -37 -43 0
2 12 38 0
-2 -12 -38 0
13 16 38 0
-13 -16 -38 0
14 30 38 0
-14 -30 -38 0
15 38 44 0
-15 -38 -44 0
3 12 39 0
-3 -12 -39 0
13 17 39 0
-13 -17 -39 0
14 31 39 0
-14 -31 -39 0
15 39 45 0
-15 -39 -45 0
4 12 40 0
-4 -12 -40 0
13 18 40 0
-13 -18 -40 0
14 32 40 0
-14 -32 -40 0
15 40 46 0
-15 -40 -46 0
5 12 41 0
-5 -12 -41 0
13 19 41 0
-13 -19 -41 0
14 33 41 0
-14 -33 -41 0
15 41 47 0
-15 -41 -47 0
6 12 42 0
-6 -12 -42 0
13 20 42 0
-13 -20 -42 0
14 34 42 0
-14 -34 -42 0
15 42 48 0
-15 -42 -48 0
7 12 43 0
-7 -12 -43 0
13 21 43 0
-13 -21 -43 0
14 35 43 0
-14 -35 -43 0
15 43 49 0
-15 -43 -49 0
8 12 44 0
-8 -12 -44 0
13 22 44 0
-13 -22 -44 0
14 36 44 0
-14 -36 -44 0
15 44 50 0
-15 -44 -50 0
9 12 45 0
-9 -12 -45 0
13 23 45 0
-13 -23 -45 0
14 37 45 0
-14 -37 -45 0
15 45 51 0
-15 -45 -51 0
10 12 46 0
-10 -12 -46 0
13 24 46 0
-13 -24 -46 0
14 38 46 0
-14 -38 -46 0
15 46 52 0
-15 -46 -52 0
11 12 47 0
-11 -12 -47 0
13 25 47 0
-13 -25 -47 0
14 39 47 0
-14 -39 -47 0
12 48 0
-12 -48 0
13 26 48 0
-13 -26 -48 0
14 40 48 0
-14 -40 -48 0
12 13 49 0
-12 -13 -49 0
13 27 49 0
-13 -27 -49 0
14 41 49 0
-14 -41 -49 0
12 14 50 0
-12 -14 -50 0
13 28 50 0
-13 -28 -50 0
14 42 50 0
-14 -42 -50 0
1 11 51 0
-1 -11 -51 0
12 15 51 0
-12 -15 -51 0
13 29 51 0
-13 -29 -51 0
14 43 51 0
-14 -43 -51 0
2 11 52 0
-2 -11 -52 0
12 16 52 0
-12 -16 -52 0
13 30 52 0
-13 -30 -52 0
14 44 52 0
-14 -44 -52 0
