certificates/rado_a14_c204_N52.drat
12 17 -52 0
-51 -52 0
48 -52 0
-52 0
-48 0
12 0
17 0
-51 0
-46 0
15 0
-9 0
-11 0
-21 0
-49 0
-23 0
-6 0
-18 0
1 0
2 0
14 0
3 0
4 0
-35 0
-37 0
-7 0
-36 0
-38 0
-8 0
-10 0
-22 0
0
